min: c;

c = 3.03810039254964 * u5_t4_h2 + 3.03810039254964 * u5_t7_h2 + 2.96401446115605 * u5_t4_h3 + 2.96401446115605 * u5_t7_h3 + 3.56435134228762 * u5_t1_h4 + 3.56435134228762 * u5_t3_h4 + 3.56435134228762 * u5_t4_h4 + 3.56435134228762 * u5_t7_h4 + 3.90570031817197 * u5_t1_h5 + 3.90570031817197 * u5_t3_h5 + 3.90570031817197 * u5_t4_h5 + 3.90570031817197 * u5_t7_h5 + 3.94496280764973 * u5_t1_h6 + 3.94496280764973 * u5_t3_h6 + 3.94496280764973 * u5_t4_h6 + 3.94496280764973 * u5_t6_h6 + 3.94496280764973 * u5_t7_h6 + 4.41371880016406 * u5_t1_h7 + 4.41371880016406 * u5_t3_h7 + 4.41371880016406 * u5_t4_h7 + 4.41371880016406 * u5_t6_h7 + 5.25072364470154 * u5_t1_h8 + 5.25072364470154 * u5_t3_h8 + 5.25072364470154 * u5_t4_h8 + 5.25072364470154 * u5_t6_h8 + 4.80538001913112 * u5_t1_h9 + 4.80538001913112 * u5_t3_h9 + 4.80538001913112 * u5_t4_h9 + 4.80538001913112 * u5_t6_h9 + 5.65363694489972 * u5_t1_h10 + 5.65363694489972 * u5_t3_h10 + 5.65363694489972 * u5_t4_h10 + 5.65363694489972 * u5_t6_h10 + 4.02525276696594 * u5_t1_h11 + 4.02525276696594 * u5_t3_h11 + 4.02525276696594 * u5_t4_h11 + 4.02525276696594 * u5_t6_h11 + 6.56005863858866 * u5_t1_h12 + 6.56005863858866 * u5_t3_h12 + 6.56005863858866 * u5_t4_h12 + 6.56005863858866 * u5_t6_h12 + 4.06930486469513 * u5_t1_h13 + 4.06930486469513 * u5_t3_h13 + 4.06930486469513 * u5_t4_h13 + 4.06930486469513 * u5_t6_h13 + 4.06930486469513 * u5_t8_h13 + 5.84421507283807 * u5_t1_h14 + 5.84421507283807 * u5_t3_h14 + 5.84421507283807 * u5_t4_h14 + 5.84421507283807 * u5_t6_h14 + 5.84421507283807 * u5_t8_h14 + 6.06226429657942 * u5_t1_h15 + 6.06226429657942 * u5_t3_h15 + 6.06226429657942 * u5_t4_h15 + 6.06226429657942 * u5_t6_h15 + 6.06226429657942 * u5_t8_h15 + 6.06226429657942 * u5_t9_h15 + 5.65812153643335 * u5_t1_h16 + 5.65812153643335 * u5_t3_h16 + 5.65812153643335 * u5_t4_h16 + 5.65812153643335 * u5_t5_h16 + 5.65812153643335 * u5_t6_h16 + 5.65812153643335 * u5_t8_h16 + 5.65812153643335 * u5_t9_h16 + 6.66731117626041 * u5_t1_h17 + 6.66731117626041 * u5_t5_h17 + 6.66731117626041 * u5_t6_h17 + 6.66731117626041 * u5_t8_h17 + 6.66731117626041 * u5_t9_h17 + 6.66731117626041 * u5_t10_h17 + 6.14461568006626 * u5_t1_h18 + 6.14461568006626 * u5_t2_h18 + 6.14461568006626 * u5_t5_h18 + 6.14461568006626 * u5_t6_h18 + 6.14461568006626 * u5_t9_h18 + 6.14461568006626 * u5_t10_h18 + 5.22742085817324 * u5_t1_h19 + 5.22742085817324 * u5_t2_h19 + 5.22742085817324 * u5_t5_h19 + 5.22742085817324 * u5_t9_h19 + 5.22742085817324 * u5_t10_h19 + 5.29413514377261 * u5_t1_h20 + 5.29413514377261 * u5_t2_h20 + 5.29413514377261 * u5_t5_h20 + 5.29413514377261 * u5_t9_h20 + 5.29413514377261 * u5_t10_h20 + 5.57752776441896 * u5_t2_h21 + 5.57752776441896 * u5_t5_h21 + 5.57752776441896 * u5_t9_h21 + 5.57752776441896 * u5_t10_h21 + 5.25150746395772 * u5_t2_h22 + 5.25150746395772 * u5_t5_h22 + 5.25150746395772 * u5_t9_h22 + 5.25150746395772 * u5_t10_h22 + 5.90280059559634 * u5_t5_h23 + 5.90280059559634 * u5_t9_h23 + 5.90280059559634 * u5_t10_h23;
0 <= u5_t1_h4 <= 1;
0 <= u5_t1_h5 <= 1;
0 <= u5_t1_h6 <= 1;
0 <= u5_t1_h7 <= 1;
0 <= u5_t1_h8 <= 1;
0 <= u5_t1_h9 <= 1;
0 <= u5_t1_h10 <= 1;
0 <= u5_t1_h11 <= 1;
0 <= u5_t1_h12 <= 1;
0 <= u5_t1_h13 <= 1;
0 <= u5_t1_h14 <= 1;
0 <= u5_t1_h15 <= 1;
0 <= u5_t1_h16 <= 1;
0 <= u5_t1_h17 <= 1;
0 <= u5_t1_h18 <= 1;
0 <= u5_t1_h19 <= 1;
0 <= u5_t1_h20 <= 1;
u5_t1_h4 + u5_t1_h5 + u5_t1_h6 + u5_t1_h7 + u5_t1_h8 + u5_t1_h9 + u5_t1_h10 + u5_t1_h11 + u5_t1_h12 + u5_t1_h13 + u5_t1_h14 + u5_t1_h15 + u5_t1_h16 + u5_t1_h17 + u5_t1_h18 + u5_t1_h19 + u5_t1_h20 = 1;
0 <= u5_t2_h18 <= 1;
0 <= u5_t2_h19 <= 1;
0 <= u5_t2_h20 <= 1;
0 <= u5_t2_h21 <= 1;
0 <= u5_t2_h22 <= 1;
u5_t2_h18 + u5_t2_h19 + u5_t2_h20 + u5_t2_h21 + u5_t2_h22 = 3;
0 <= u5_t3_h4 <= 1;
0 <= u5_t3_h5 <= 1;
0 <= u5_t3_h6 <= 1;
0 <= u5_t3_h7 <= 1;
0 <= u5_t3_h8 <= 1;
0 <= u5_t3_h9 <= 1;
0 <= u5_t3_h10 <= 1;
0 <= u5_t3_h11 <= 1;
0 <= u5_t3_h12 <= 1;
0 <= u5_t3_h13 <= 1;
0 <= u5_t3_h14 <= 1;
0 <= u5_t3_h15 <= 1;
0 <= u5_t3_h16 <= 1;
u5_t3_h4 + u5_t3_h5 + u5_t3_h6 + u5_t3_h7 + u5_t3_h8 + u5_t3_h9 + u5_t3_h10 + u5_t3_h11 + u5_t3_h12 + u5_t3_h13 + u5_t3_h14 + u5_t3_h15 + u5_t3_h16 = 1;
0 <= u5_t4_h2 <= 1;
0 <= u5_t4_h3 <= 1;
0 <= u5_t4_h4 <= 1;
0 <= u5_t4_h5 <= 1;
0 <= u5_t4_h6 <= 1;
0 <= u5_t4_h7 <= 1;
0 <= u5_t4_h8 <= 1;
0 <= u5_t4_h9 <= 1;
0 <= u5_t4_h10 <= 1;
0 <= u5_t4_h11 <= 1;
0 <= u5_t4_h12 <= 1;
0 <= u5_t4_h13 <= 1;
0 <= u5_t4_h14 <= 1;
0 <= u5_t4_h15 <= 1;
0 <= u5_t4_h16 <= 1;
u5_t4_h2 + u5_t4_h3 + u5_t4_h4 + u5_t4_h5 + u5_t4_h6 + u5_t4_h7 + u5_t4_h8 + u5_t4_h9 + u5_t4_h10 + u5_t4_h11 + u5_t4_h12 + u5_t4_h13 + u5_t4_h14 + u5_t4_h15 + u5_t4_h16 = 3;
0 <= u5_t5_h16 <= 1;
0 <= u5_t5_h17 <= 1;
0 <= u5_t5_h18 <= 1;
0 <= u5_t5_h19 <= 1;
0 <= u5_t5_h20 <= 1;
0 <= u5_t5_h21 <= 1;
0 <= u5_t5_h22 <= 1;
0 <= u5_t5_h23 <= 1;
u5_t5_h16 + u5_t5_h17 + u5_t5_h18 + u5_t5_h19 + u5_t5_h20 + u5_t5_h21 + u5_t5_h22 + u5_t5_h23 = 2;
0 <= u5_t6_h6 <= 1;
0 <= u5_t6_h7 <= 1;
0 <= u5_t6_h8 <= 1;
0 <= u5_t6_h9 <= 1;
0 <= u5_t6_h10 <= 1;
0 <= u5_t6_h11 <= 1;
0 <= u5_t6_h12 <= 1;
0 <= u5_t6_h13 <= 1;
0 <= u5_t6_h14 <= 1;
0 <= u5_t6_h15 <= 1;
0 <= u5_t6_h16 <= 1;
0 <= u5_t6_h17 <= 1;
0 <= u5_t6_h18 <= 1;
u5_t6_h6 + u5_t6_h7 + u5_t6_h8 + u5_t6_h9 + u5_t6_h10 + u5_t6_h11 + u5_t6_h12 + u5_t6_h13 + u5_t6_h14 + u5_t6_h15 + u5_t6_h16 + u5_t6_h17 + u5_t6_h18 = 2;
0 <= u5_t7_h2 <= 1;
0 <= u5_t7_h3 <= 1;
0 <= u5_t7_h4 <= 1;
0 <= u5_t7_h5 <= 1;
0 <= u5_t7_h6 <= 1;
u5_t7_h2 + u5_t7_h3 + u5_t7_h4 + u5_t7_h5 + u5_t7_h6 = 1;
0 <= u5_t8_h13 <= 1;
0 <= u5_t8_h14 <= 1;
0 <= u5_t8_h15 <= 1;
0 <= u5_t8_h16 <= 1;
0 <= u5_t8_h17 <= 1;
u5_t8_h13 + u5_t8_h14 + u5_t8_h15 + u5_t8_h16 + u5_t8_h17 = 3;
0 <= u5_t9_h15 <= 1;
0 <= u5_t9_h16 <= 1;
0 <= u5_t9_h17 <= 1;
0 <= u5_t9_h18 <= 1;
0 <= u5_t9_h19 <= 1;
0 <= u5_t9_h20 <= 1;
0 <= u5_t9_h21 <= 1;
0 <= u5_t9_h22 <= 1;
0 <= u5_t9_h23 <= 1;
u5_t9_h15 + u5_t9_h16 + u5_t9_h17 + u5_t9_h18 + u5_t9_h19 + u5_t9_h20 + u5_t9_h21 + u5_t9_h22 + u5_t9_h23 = 1;
0 <= u5_t10_h17 <= 1;
0 <= u5_t10_h18 <= 1;
0 <= u5_t10_h19 <= 1;
0 <= u5_t10_h20 <= 1;
0 <= u5_t10_h21 <= 1;
0 <= u5_t10_h22 <= 1;
0 <= u5_t10_h23 <= 1;
u5_t10_h17 + u5_t10_h18 + u5_t10_h19 + u5_t10_h20 + u5_t10_h21 + u5_t10_h22 + u5_t10_h23 = 1;
